94
81
48
74
67
26
82
97
27
59
96
62
89
1
3
99
46
12
37
0
58
80
75
49
17
98
57
61
19
43
50
52
35
2
85
8
83
45
28
32
72
4
70
55
16
71
41
93
30
66
63
22
5
24
6
90
78
9
33
60
79
42
44
54
13
34
76
18
95
65
11
77
40
10
15
68
39
21
87
51
38
31
47
64
56
88
23
7
69
53
92
25
20
86
91
84
29
36
73
14
